sat
(:max-memory         18.01
 :memory             17.92
 :nlsat-propagations 8
 :nlsat-stages       4
 :num-allocs         5154
 :rlimit-count       772
 :time               0.00
 :total-time         0.01)
